NAME: ./prFile/tspFile/tsp_file98.tsp
COMMENT: TSP file generated by Python
TYPE: TSP
DIMENSION: 40
EDGE_WEIGHT_TYPE: EUC_2D
NODE_COORD_SECTION
1 15 16
2 17 35
3 69 22
4 80 20
5 67 28
6 45 86
7 9 81
8 82 46
9 68 50
10 11 49
11 35 31
12 19 68
13 26 14
14 79 48
15 56 56
16 22 45
17 43 82
18 16 78
19 8 47
20 61 100
21 67 44
22 35 76
23 5 92
24 21 62
25 11 64
26 14 2
27 76 52
28 82 75
29 2 90
30 25 15
31 98 93
32 83 26
33 12 96
34 5 2
35 76 30
36 73 2
37 67 71
38 73 69
39 23 89
40 82 26
EOF
